data/lp_files/pEFS/28_6.lp
\ Model foo
\ LP format - for model browsing. Use MPS format to capture full model detail.
Minimize
  z
Subject To
 allocateEach[1]: x[1,1] + x[2,1] = 1
 allocateEach[2]: x[1,2] + x[2,2] = 1
 allocateEach[3]: x[1,3] + x[2,3] = 1
 allocateEach[4]: x[1,4] + x[2,4] = 1
 allocateEach[5]: x[1,5] + x[2,5] = 1
 allocateEach[6]: x[1,6] + x[2,6] = 1
 allocateEach[7]: x[1,7] + x[2,7] = 1
 allocateEach[8]: x[1,8] + x[2,8] = 1
 allocateAllCash: cashProportion[1] + cashProportion[2] = 1
 findWorstP[1,2]: z + 0.075424735542021 cashProportion[1]
   - 0.075424735542021 cashProportion[2] + 0.1359530858144929 x[1,1]
   + 0.1756642090773669 x[1,2] + 0.00793845341579771 x[1,3]
   + 0.1636905323100711 x[1,4] + 0.0766880998623499 x[1,5]
   + 0.1599381517168555 x[1,6] + 0.0539098297286595 x[1,7]
   + 0.1507929025323855 x[1,8] - 0.1359530858144929 x[2,1]
   - 0.1756642090773669 x[2,2] - 0.00793845341579771 x[2,3]
   - 0.1636905323100711 x[2,4] - 0.0766880998623499 x[2,5]
   - 0.1599381517168555 x[2,6] - 0.0539098297286595 x[2,7]
   - 0.1507929025323855 x[2,8] >= 0
 findWorstP[2,1]: z - 0.0843828449676181 cashProportion[1]
   + 0.0843828449676181 cashProportion[2] - 0.138746492838006 x[1,1]
   - 0.0297660485623273 x[1,2] - 0.1224395080480138 x[1,3]
   - 0.1909372824504778 x[1,4] - 0.188469084235175 x[1,5]
   - 0.0697002299432525 x[1,6] - 0.0732654051431344 x[1,7]
   - 0.102293103811995 x[1,8] + 0.138746492838006 x[2,1]
   + 0.0297660485623273 x[2,2] + 0.1224395080480138 x[2,3]
   + 0.1909372824504778 x[2,4] + 0.188469084235175 x[2,5]
   + 0.0697002299432525 x[2,6] + 0.0732654051431344 x[2,7]
   + 0.102293103811995 x[2,8] >= 0
Bounds
 z <= 1
 -infinity <= cashProportion[1] <= 1
 -infinity <= cashProportion[2] <= 1
Binaries
 x[1,1] x[1,2] x[1,3] x[1,4] x[1,5] x[1,6] x[1,7] x[1,8] x[2,1] x[2,2]
 x[2,3] x[2,4] x[2,5] x[2,6] x[2,7] x[2,8]
End
